c Lingeling SAT Solver
c 
c Version ala b02aa1a04343558c4252b5f4a723be021964f652
c 
c Copyright (C) 2010-2012 Armin Biere JKU Linz Austria.
c All rights reserved.
c 
c released Sat Oct 13 14:05:26 CEST 2012
c compiled Sat Feb 16 02:48:12 EST 2013
c 
c gcc (Debian 4.4.5-8) 4.4.5
c -Wall -O3 -DNLGLOG -DNDEBUG -DNCHKSOL -DNLGLPICOSAT 
c Linux greencar2 2.6.32-5-amd64 x86_64
c 
c reading input file p65.cnf
c no embedded options
c found 'p cnf 230655 712895' header
c read 230655 variables, 712895 clauses, 1482825 literals in 0.0 seconds
c
c feature vars 230655
c feature lits.total 1482825
c feature lits.pos 790206
c feature lits.neg 692619
c feature clauses.total 712895
c feature clauses.unit 86179
c feature clauses.bin 502302
c feature clauses.trn 123014
c feature clauses.lrg 1400
c feature cog.val.min 1
c feature cog.val.avg 102765
c feature cog.val.max 221579
c feature cog.var.min 1
c feature cog.var.avg 115328
c feature cog.var.max 230654
c
c
c --abstime=0
c --acts=2
c --actavgmax=120
c --actstdmin=20
c --actstdmax=80
c --agile=23
c --bias=2
c --block=1
c --blkrtc=0
c --blkclslim=2000
c --blkocclim=2000
c --blkmaxeff=2147483647
c --blkmineff=10000000
c --blkreleff=20
c --card=0
c --cce=3
c --ccemaxeff=100000000
c --ccemineff=5000000
c --ccereleff=3
c --check=0
c --cgrclsr=1
c --cgrmaxority=20
c --cgrmaxeff=8000000
c --cgrmineff=200000
c --cgreleff=1
c --cgrexteq=1
c --cgrextand=1
c --cgrextunits=1
c --cgrextite=1
c --cgrextxor=1
c --cliff=1
c --cliffreleff=8
c --cliffmineff=10000000
c --cliffmaxeff=100000000
c --compact=0
c --decompose=1
c --defragint=10000000
c --defragfree=50
c --elim=1
c --elmrtc=0
c --elmblk=1
c --elmclslim=1000
c --elmocclim=1000
c --elmaxeff=100000000
c --elmineff=5000000
c --elmreleff=10
c --sleeponabort=0
c --exitonabort=0
c --flipping=1
c --flipint=2
c --flipdur=50
c --fliptop=1
c --force=0
c --gauss=1
c --gaussextrall=1
c --gaussmaxor=20
c --gaussexptrn=1
c --gaussmaxeff=50000000
c --gaussmineff=2000000
c --gaussreleff=2
c --gluescale=2
c --gluekeep=0
c --inprocessing=1
c --cintinc=10000
c --irrlim=20
c --lift=1
c --lftmaxeff=20000000
c --lftmineff=500000
c --lftreleff=6
c --lhbr=1
c --lkhd=1
c --clim=-1
c --mocint=1000
c --move=2
c --log=-1
c --otfs=1
c --phase=0
c --phaseneginit=0
c --plain=0
c --probe=1
c --prbasicmaxeff=100000000
c --prbasicmineff=1000000
c --prbasicreleff=10
c --prbasic=1
c --prbasicroundlim=9
c --queuemergelim=10000
c --queuefactor=833
c --queueinc=20
c --rmincpen=4
c --seed=0
c --smallirr=90
c --smallve=1
c --smallvevars=12
c --randec=1
c --randecint=1000
c --redfixed=0
c --redlbound=0
c --redlexpfac=10
c --redldoutfac=0
c --redloutinc=10000
c --redlinit=1000
c --redlinc=1000
c --redinoutinc=100
c --redlmininc=10
c --redlmaxinc=200
c --redlminrel=10
c --redlmaxrel=300
c --redlminabs=500
c --redlmaxabs=1000000
c --reduce=1
c --restart=2
c --restartint=5
c --rstinoutinc=110
c --simplify=1
c --simpdelay=100
c --simpen=4
c --sizepen=1000000
c --sizemaxpen=3
c --sortlits=0
c --syncint=111111
c --termint=122222
c --ternres=1
c --ternresrtc=0
c --trnrmineff=4000000
c --trnrmaxeff=40000000
c --trnreleff=10
c --transred=1
c --trdmineff=100000
c --trdmaxeff=2000000
c --trdreleff=10
c --unhide=1
c --unhdextstamp=1
c --unhdhbr=0
c --unhdmaxeff=20000000
c --unhdmineff=1000000
c --unhdreleff=4
c --unhdlnpr=3
c --unhdroundlim=5
c --verbose=1
c --witness=1
c [limits] no conflict limit
c [limits] simplification delayed by 100 to 100 conflicts
c 
c  seconds         irredundant          redundant clauses agility   height
c          variables clauses conflicts large binary ternary    glue         MB
c 
c *    0.0  126614   528854         0       0      0     0  65  0.0   0.0   42
c [cut-width] 176323, max 275315, min4 114596 at 75%, min10 35345 at 89%
c [decision-order] bias 1, old 1
c [queue-schedule-all-variables]
c s    0.0  126614   528854         0       0      0     0  65  0.0   0.0   42
c [simplification-1] limit hit at 103 conflicts
c [simplification-1] simplification penalty of 4
c [ternres-1] limit 4000000 with penalty 0 = 0 + 0
c [ternres-1] all 126614 free variables schedulable
c [ternres-1] 0 ternary resolvents (0 bin, 0 trn)
c [ternres-1] 17134 variables remain 14% (109480 retained)
c [gauss-1] limit 2000000 penalty 0 = 0 + 0
c [gauss-1] extracted 167883 xors of average arity 2.0
c [gauss-1] connected 335769 occurrences of 114826 variables (average 2.9)
c [gauss-1] limit 2000000 penalty 0 = 0 + 0
c d    1.4   58145   262163       103     101      0     2  52  4.4 359.1   21
c [gauss-1] exported 0 unary, 2 binary and 0 ternary equations
c G    1.4   58145   262163       103     101      0     2  52  4.4 359.1   21
c [basicprobe-1] limit 1000000 penalty 0 = 0 + 0
c [basicprobe-1-0] 4389 probes remain 8% after last round
c [basicprobe-1-0] removed 0 variables, found 5248 hbrs
c p    1.7   58145   262163       103     101   5248     2  52  4.4 359.1   25
c [cgrclsr-1] limit 200000 penalty 0 = 0 + 0
c [cgrclsr-1] all 58145 free variables schedulable
c [cgrclsr-1] fully completed congruence closure
c [lift-1] limit 500000 with penalty 0 = 0 + 0
c [lift-1] using 58145 probes 100%
c [lift-1] 58093 variables remain 100% (48 retained)
c [lift-1] removed 4 variables
c ^    2.1   58141   262144       103     101   5302     2  52  4.4 359.1   21
c [cliff-1] limit of 10000000 steps penalty 0 = 0 + 0
c [cliff-1] failed 0, lifted 9
c K    2.6   58132   262144       103     101  13172     2  52  4.4 359.1   25
c [unhide-1] limit 1000000 with penalty 0 = 0 + 0
c [unhide-1-1] 0 units, 0 failed, 20932 tauts, 0 hbrs, 54 literals
c u    2.9   58132   241172       103     101  13171     2  52  4.4 359.1   26
c [transred-1] limit 100000 with penalty 0 = 0 + 0
c t    2.9   58132   241169       103     101  13167     2  52  4.4 359.1   26
c [block-1] scheduling all variables this time
c [block-1] scheduled 58132 variables 100%
c [block-1] limit of 10000000 steps penalty 0 = 0 + 0
c [block-1] fully completed blocked clause elimination
c [block-1] transition to [ all 0 rem 0 ] state
c [block-1] eliminated 4800 blocked clauses
c k    3.1   58132   236369       103     101  13167  4802  52  4.4 359.1   21
c [cce-1] scheduling all variables this time
c [cce-1] limit of 10000000 steps penalty 0 = 0 + 0
c [cce-1] incomplete covered clause elimination 52913 not tried 91%
c [cce-1] transition to [ all 1 rem 1 ] state
c [cce-1] eliminated 63 covered clauses
c E    3.9   58130   236306       103     101  21112  4802  52  4.4 359.1   21
c [elim-1] scheduling all variables this time
c [elim-1] scheduled 58130 variables 100%
c [elim-1] limit of 5000000 steps penalty 0 = 0 + 0
c [elim-1] incomplete variable elimination 43120 not tried 74%
c [elim-1] transition to [ all 1 rem 1 ] state
c [elim-1] eliminated 6647 = 11% variables out of 58130
c e    5.4   51483   232339       103      52   5963   599  52  4.4 359.1   21
c [phase-1] phase bias: 2074 positive 15%, 11528 negative 85%
c [simplification-1] removed 75131 variables 59%
c [simplification-1] limit increments divided by 30
c [simplification-1] arithmetic increase of conflict limit interval by 333
c [simplification-1] new irredundant limit 2319190
c [simplification-1] new conflict limit 436
c [simplification-1] simplification penalty reduced to 3
c R    5.6   51483   232339       412     325   5971   624  15  6.0 305.1   25
c [simplification-2] limit hit at 436 conflicts
c [simplification-2] simplification penalty of 3
c [ternres-2] limit 2000000 with penalty 1 = 1 + 0
c [ternres-2] 6977 schedulable variables 14%
c [ternres-2] 2 ternary resolvents (0 bin, 2 trn)
c [ternres-2] fully completed ternary resolution
c T    5.7   51483   232339       436     341   5975   630  15  5.8 286.0   26
c [gauss-2] limit 2000000 penalty 0 = 0 + 0
c [gauss-2] extracted 914 xors of average arity 3.0
c [gauss-2] connected 2742 occurrences of 1359 variables (average 2.0)
c [gauss-2] limit 2000000 penalty 0 = 0 + 0
c [gauss-2] fully completed
c [gauss-2] exported 0 unary, 0 binary and 0 ternary equations
c G    5.9   51483   232339       436     341   5975   630  15  5.8 286.0   21
c [basicprobe-2] limit 500000 penalty 1 = 1 + 0
c [basicprobe-2-0] 4440 probes remain 9% after last round
c [basicprobe-2-0] removed 0 variables, found 371 hbrs
c p    6.1   51483   232339       436     341   6346   630  15  5.8 286.0   25
c [cgrclsr-2] limit 100000 penalty 1 = 1 + 0
c [cgrclsr-2] all 51483 free variables schedulable
c [cgrclsr-2] fully completed congruence closure
c [lift-2] limit 500000 with penalty 0 = 0 + 0
c [lift-2] using 51440 probes 100%
c [lift-2] 51396 variables remain 100% (87 retained)
c [cliff-2] limit of 10000000 steps penalty 0 = 0 + 0
c [cliff-2] failed 0, lifted 0
c [unhide-2] limit 1000000 with penalty 0 = 0 + 0
c [unhide-2-2] 0 units, 0 failed, 1465 tauts, 0 hbrs, 147 literals
c u    7.2   51483   232336       436     338   6275   629  15  5.8 286.0   25
c [transred-3] limit 100000 with penalty 0 = 0 + 0
c t    7.2   51483   232333       436     338   6271   629  15  5.8 286.0   25
c [block-2] scheduling all variables this time
c [block-2] scheduled 51483 variables 100%
c [block-2] limit of 10000000 steps penalty 0 = 0 + 0
c [block-2] fully completed blocked clause elimination
c [block-2] transition to [ all 0 rem 0 ] state
c [block-2] eliminated 0 blocked clauses
c [cce-2] 48782 variables 95% will be scheduled this time
c [cce-2] limit of 10000000 steps penalty 0 = 0 + 0
c [cce-2] 48260 variables 94% remain to be tried next time
c [cce-2] transition to [ all 0 rem 1 ] state
c [cce-2] eliminated 328 covered clauses
c E    8.0   51483   232005       436     338   6605   629  15  5.8 286.0   21
c [elim-2] 43069 variables 84% will be scheduled this time
c [elim-2] scheduled 43069 variables 84%
c [elim-2] limit of 5000000 steps penalty 0 = 0 + 0
c [elim-2] 32938 variables 64% remain to be tried next time
c [elim-2] transition to [ all 0 rem 1 ] state
c [elim-2] eliminated 1384 = 3% variables out of 51483
c e    9.6   50099   231406       436     329   4876   628  15  5.8 286.0   21
c [phase-2] phase bias: 11 positive 85%, 2 negative 15%
c [simplification-2] removed 1384 variables 2%
c [simplification-2] limit increments divided by 2
c [simplification-2] arithmetic increase of conflict limit interval by 5000
c [simplification-2] new irredundant limit 2319190
c [simplification-2] new conflict limit 5769
c [simplification-2] simplification penalty reduced to 2
c R   10.1   50099   231406       980     805   4891   679   6  6.0 250.6   26
c -   10.2   50099   231406      1223     500   4910   707   3  5.7 221.9   26
c R   10.8   50099   231406      2265    1449   4936   765   5  6.6 217.8   26
c 
c  seconds         irredundant          redundant clauses agility   height
c          variables clauses conflicts large binary ternary    glue         MB
c 
c -   12.3   50099   231406      4205    1661   5007   943   3  6.3 237.9   26
c R   12.6   50099   231406      5176    2588   5014   976   6  7.1 255.8   26
c [simplification-3] limit hit at 5769 conflicts
c [simplification-3] simplification penalty of 2
c [ternres-3] limit 4000000 with penalty 0 = 0 + 0
c [ternres-3] all 50099 free variables schedulable
c [ternres-3] 268 ternary resolvents (0 bin, 268 trn)
c [ternres-3] fully completed ternary resolution
c T   13.1   50099   231406      5769    3055   5048  1326   5  6.9 243.0   26
c [gauss-3] limit 1000000 penalty 1 = 1 + 0
c [gauss-3] extracted 436 xors of average arity 3.0
c [gauss-3] connected 1308 occurrences of 1050 variables (average 1.2)
c [gauss-3] limit 1000000 penalty 1 = 1 + 0
c [gauss-3] fully completed
c [gauss-3] exported 0 unary, 0 binary and 0 ternary equations
c G   13.3   50099   231406      5769    3055   5048  1326   5  6.9 243.0   21
c [basicprobe-3] limit 250000 penalty 2 = 2 + 0
c [basicprobe-3-0] 4294 probes remain 9% after last round
c [basicprobe-3-0] removed 0 variables, found 605 hbrs
c p   13.5   50099   231406      5769    3055   5653  1318   5  6.9 243.0   26
c [cgrclsr-3] limit 72578 based on 580628 irredundant literals
c [cgrclsr-3] all 50099 free variables schedulable
c [cgrclsr-3] fully completed congruence closure
c [lift-3] limit 250000 with penalty 1 = 1 + 0
c [lift-3] using 50012 probes 100%
c [lift-3] 49989 variables remain 100% (110 retained)
c [cliff-3] limit of 5000000 steps penalty 1 = 1 + 0
c [cliff-3] failed 0, lifted 1
c K   14.1   50098   231406      5769    3055   6624  1313   5  6.9 243.0   26
c [unhide-3] limit 1000000 with penalty 0 = 0 + 0
c [unhide-3-3] 0 units, 0 failed, 2057 tauts, 0 hbrs, 1359 literals
c u   14.3   50098   229378      5769    3023   6627  1306   5  6.9 243.0   26
c [transred-5] limit 600149 with penalty 0 = 0 + 0
c t   14.4   50098   229371      5769    3023   6610  1306   5  6.9 243.0   26
c [block-3] scheduling all variables this time
c [block-3] scheduled 50098 variables 100%
c [block-3] limit of 5000000 steps penalty 1 = 1 + 0
c [block-3] fully completed blocked clause elimination
c [block-3] transition to [ all 0 rem 0 ] state
c [block-3] eliminated 0 blocked clauses
c [cce-3] scheduling all variables this time
c [cce-3] limit of 10000000 steps penalty 0 = 0 + 0
c [cce-3] 46622 variables 93% remain to be tried next time
c [cce-3] transition to [ all 1 rem 1 ] state
c [cce-3] eliminated 229 covered clauses
c E   15.3   50098   229142      5769    3023   7143  1301   5  6.9 243.0   21
c [elim-3] scheduling all variables this time
c [elim-3] scheduled 50098 variables 100%
c [elim-3] limit of 5000000 steps penalty 0 = 0 + 0
c [elim-3] 31952 variables 64% remain to be tried next time
c [elim-3] transition to [ all 1 rem 1 ] state
c [elim-3] eliminated 317 = 1% variables out of 50098
c e   16.9   49781   228856      5769    3006   6352  1296   5  6.9 243.0   21
c [simplification-3] removed 318 variables 0%
c [simplification-3] no reduction of limit increments
c [simplification-3] arithmetic increase of conflict limit interval by 10000
c [simplification-3] new irredundant limit 2319190
c [simplification-3] new conflict limit 21102
c [simplification-3] simplification penalty reduced to 1
c -   18.5   49781   228856      8075    2502   6437  1497   4  7.2 240.8   26
c R   20.1   49781   228856     11623    5843   6493  1633   7  8.4 242.1   28
c -   21.3   49781   228856     12996    3517   6550  1747   3  8.1 239.9   26
c 1   23.6   49781   228856     16355    6490   6662  1999   5  8.1 241.7   27
c 
c  seconds         irredundant          redundant clauses agility   height
c          variables clauses conflicts large binary ternary    glue         MB
c 
c blkd: 3 bces, 4800 removed, 2069906 resolutions, 5703971 steps
c blkd: 4800 blocking literals 1%, 0 pure
c cces: 3 cces, 611 eliminated, 611 ate 100%, 0 abce 0%
c cces: 17764 probed, 1 lifted, 2 failed
c clff: 3 cliffs, 10 lifted, 0 failed
c clff: 12990 decisions, 25013185 steps
c clls: 1 sat, 0 simp, 0 freeze, 0 melt
c clls: 2195720 add, 0 assume,, 0 deref, 0 failed
c clls: 0 cassume, 0 mosat
c coll: 19 gcs, 0 rescored clauses
c cgrs: 3 count, 372579 esteps, 84287 csteps
c cgrs: 0 eqs, 0 units
c cgrs: 0 matched (0 ands 0%, 0 xors 0%, 0 ites 0%)
c cgrs: 0 simplified (0 ands 0%, 0 xors 0%, 0 ites 0%)
c cgrs: 2276 extracted (1957 ands 86%, 319 xors 14%, 0 ites 0%)
c dcps: 4 decompositions, 68469 equivalent 30%
c decs: 296781 decision, 298 random 0.100%
c decs: 74577 flipped 25.129% (in 101 phases)
c elms: 3 elims, 8348 eliminated 4%
c elms: 8348 small 100%, 0 large 0%
c elms: 36627 tried small, 8348 succeeded 23%, 28279 failed 77%
c elms: 0 subsumed, 0 strengthened, 0 blocked
c elms: 480468 copies, 329357 resolutions, 977817 ipos
c elms: 0 subchks, 0 strchks
c frcs: 0 computed, 22.8 - 77.2 average min-cut range
c gaus: 3 extractions, 169233 extracted, 2.0 size, 3 max
c gaus: exported 0 units, 2 binary and 0 ternary equations
c gaus: 0 gc, 10000060 steps, 5000030 extr 50%, 2357746 elim 24%
c glue: 8.1 avg, 2.8 scaled avg
c glue: 0 maxredglue=15 (0%)
c lift: 3 phases, 690 probed (230 level1 33%, 460 level2 67%)
c lift: 4 units, 0 equivalences, 0 implications
c hbrs: 24714 hbrs = 24714 trn 100% + 0 lrg 0%, 18 sub 0%
c lrnd: 16236 clauses, 9660 uips 59%, 41.3 length, 8.1 glue
c ints: 766 luby (106005 steps), 0 inout (0 steps)
c mins: 670298 learned lits, 6% minimized
c move: moved 5411, 611 binary 11%, 4800 ternary 89%
c otfs: str 713 dyn (643 red, 70 irr) 119 drv 17%, 594 rst 83%
c otfs: sub 2 dyn (2 red, 0 irr)
c phas: 2 computed, 13712 set, 2085 pos (15%), 11627 neg (85%)
c prbs: 3 basic, 2342 probed, 0 failed, 0 lifted
c prps: 41684893 props, 111 props/dec
c prps: 79% srch, 21% simp, 0% lkhd
c psns: 1994188 searches, 473068 hits, 24% hit rate
c queu: 73087 new, 29137 del, 120 maximum priority
c queu: 43914 merged, 43006 collected, 7 gcs
c queu: 16949 deprioritized, 25.9 lines on average
c reds: 4 count, 0 reset, 4 acts 100%, 0 exp 0%
c reds: 4 arithmetic 100%, 4 double 100%
c rmbd: 3 removed, 0 red 0%
c rsts: 717 restarts 94%, 48 skipped 6%
c rsts: 80 kept 11.2% average 43.1%
c simp: 3 count (0 ilim 0%, 0 plim 0%, 3 clim 100%)
c trnr: 3 count, 0 bin, 270 trn, 8468491 steps
c tops: 104057 fixed 45%, 0 iterations
c trds: 6 transitive reductions, 38 removed, 0 failed
c trds: 1094 nodes, 1484 edges, 801288 steps
c unhd: 3 count, 3 rounds, 3624717 steps
c unhd: 0 non-trivial sccs of average size 0.0
c unhd: 0 units, 0 bin, 0 trn, 0 lrg
c unhd: 0 failed, 0 stamp, 0 lits, 0 bin, 0 trn, 0 lrg
c unhd: 24454 tauts, 1 bin 0%, 599 trn 2%, 26 lrg 0%
c unhd: 24454 tauts, 23828 stamp 97%, 1502 red 6%
c unhd: 0 hbrs, 0 trn 0%, 0 lrg 0%, 0 red 0%
c unhd: 1560 strd, 0 bin 0%, 3 trn 0%, 1557 lrg 100%, 1560 red 100%
c vars: 49781 remaining 22% and 180874 removed 78% out of 230655
c vars: 104057 fixed 45%, 8348 eliminated 4%, 68469 equivalent 30%
c vsts: 208185665 visits, 81% srch, 19% simp, 0% lkhd
c vsts: 5.1 search visits per propagation 10307.2 per conflict
c wchs: 15430155 pushed, 5597108 enlarged, 32 defrags
c 
c scaledglue  added       reduced       forcing      resolved     conflicts
c 
c all     14601 100      7976 100    153267 100     40450 100      3298 100
c 
c  0          0   0         0   0         0   0         0   0         0   0 
c  1         97   1        32   0       967   1       243   1        13   0 
c  2       4960  34      2405  30     69155  45     12612  31       966  29 
c  3       5304  36<     2914  37<    67587  44<    16761  41<     1526  46<
c  4       2368  16      1372  17     11294   7      6546  16       510  15 
c  5       1139   8       736   9      3163   2      2800   7       194   6 
c  6        577   4       416   5       910   1      1230   3        71   2 
c  7        111   1        66   1       138   0       187   0        14   0 
c  8         40   0        32   0        48   0        66   0         4   0 
c  9          4   0         3   0         4   0         4   0         0   0 
c 10          0   0         0   0         0   0         0   0         0   0 
c 11          1   0         0   0         1   0         1   0         0   0 
c 12          0   0         0   0         0   0         0   0         0   0 
c 13          0   0         0   0         0   0         0   0         0   0 
c 14          0   0         0   0         0   0         0   0         0   0 
c 15          0   0         0   0         0   0         0   0         0   0 
c 
c avg             3.1           3.3           2.7           3.1           3.1
c std             1.2           1.2           0.8           1.1           1.0
c 
c 296781 decisions, 16355 conflicts, 692.8 conflicts/sec
c 41684893 propagations, 1.8 megaprops/sec
c 23.6 seconds, 48.7 MB
c 
c    1.420   6% analysis
c    0.684   3% block
c    0.068   0% bump
c    0.000   0% card
c    1.920   8% cce
c    1.440   6% cliff
c    0.028   0% cutwidth
c    0.380   2% decide
c    0.000   0% force
c    1.404   6% gc
c    0.496   2% cgrclsr
c    0.700   3% decomp
c    0.392   2% defrag
c    4.768  20% elim
c    1.644   7% gauss
c    0.540   2% lift
c    0.224   1% mincls
c    0.080   0% phase
c    0.184   1% probe
c    0.032   0% reduce
c    0.596   3% restart
c    0.216   1% ternres
c    0.084   0% transred
c    0.664   3% unhide
c ==================================
c    0.036   0% preprocessing     0%
c   13.409  57% inprocessing    100%
c ==================================
c   13.445  57% simplifying
c    0.000   0% lookahead
c   10.149  43% search
c ==================================
c   23.605 100% all
c
s SATISFIABLE
